216.2 213.8
202.8 65.4
19.3 236.6
153.4 0.7
227.6 246.2
71.6 203.4
20.6 109.6
204.4 102.2
129.4 29.3
203.5 124.5
62.1 194.2
244.8 134.6
184.3 248.2
7.5 149.7
241.8 29.3
55.8 137.6
180.6 138.2
136.9 12.9
184.8 80.2
18.5 239.6
164.9 113.9
183.2 119.5
31.2 151.1
186.7 186.0
137.9 232.1
236.4 218.7
92.9 66.9
132.5 163.6
40.1 139.9
109.7 0.4
